50
17808

483 267
559 492
959 903
294 994
404 719
294 729
530 191
254 294
820 668
197 188
525 59
280 399
883 471
248 544
460 244
78 489
266 111
410 503
333 463
591 788
600 143
110 554
704 881
483 270
570 485
860 361
6 72
336 778
941 395
770 242
193 774
796 455
924 595
977 75
151 78
110 187
712 230
165 54
71 64
669 628
399 232
862 78
304 198
914 62
306 884
356 146
219 974
852 297
653 324
606 871
